Welcome to the CBC MILP Solver 
Version: 2.10.12 
Build Date: Jun 17 2025 

command line - cbc -solve -quit (default strategy 1)
Presolve 600 (0) rows, 1400 (-1) columns and 10922 (0) elements
Perturbing problem by 0.001% of 0.17782794 - largest nonzero change 5.9565541e-06 ( 0.0033496165%) - largest zero change 5.9546872e-06
0  Obj -0 Dual inf 35.564661 (200)
87  Obj 199.99483 Primal inf 149.68758 (200)
174  Obj 199.99476 Primal inf 99.375172 (200)
247  Obj 199.99474 Primal inf 64.782093 (175)
290  Obj 199.99474 Primal inf 128.69061 (177)
334  Obj 199.99474 Primal inf 119.42324 (178)
385  Obj 199.99474 Primal inf 65.481324 (161)
448  Obj 199.99474 Primal inf 12.664075 (121)
524  Obj 199.99474 Primal inf 0.67938231 (60)
584  Obj 199.99474 Primal inf 0.050210141 (27)
613  Obj 199.99474
Optimal - objective value 200
Optimal objective 200 - 613 iterations time 0.092
Continuous objective value is 200 - 0.09 seconds
Optimal - objective value 200
Optimal - objective value 200
Presolve 400 (-200) rows, 1200 (-201) columns and 20244 (9322) elements
Optimal - objective value 200
Presolve 400 (0) rows, 1200 (0) columns and 20244 (0) elements
0  Obj 200
Optimal - objective value 200
Optimal - objective value 200
processed model has 400 rows, 1200 columns (1200 integer (1200 of which binary)) and 20244 elements
0  Obj 200
Optimal - objective value 200
Optimal - objective value 200
Cutoff increment increased from 1e-05 to 0.9999
Optimal - objective value -200
Initial state - 200 integers unsatisfied sum - 16.0464
Optimal - objective value -200
Optimal - objective value -200
0  Obj 6.8734471 Dual inf 1009.4857 (365)
Perturbing problem by 0.001% of 5.4524218 - largest nonzero change 6.3103267e-05 ( 0.00019324584%) - largest zero change 0
87  Obj 6.1564808 Dual inf 2676.4479 (441)
174  Obj 5.8027526 Dual inf 4582.1424 (507)
261  Obj 5.6780397 Dual inf 53.40535 (101)
348  Obj 5.6049129 Dual inf 376.87677 (250)
435  Obj 5.5727818 Dual inf 3026.0568 (446)
476  Obj 5.5681244
476  Obj 5.5681533
Optimal - objective value 5.5681533
Pass   1: suminf.   14.91841 (200) obj. 199.995 iterations 476
0  Obj 17.830522 Dual inf 10236.089 (489)
Perturbing problem by 0.001% of 5.4524218 - largest nonzero change 6.4453414e-05 ( 0.0013420878%) - largest zero change 0
66  Obj 16.554614 Dual inf 30953.865 (569)
131  Obj 15.307154 Dual inf 57619.932 (562)
208  Obj 13.502591 Dual inf 10293.145 (479)
279  Obj 11.96293 Dual inf 9777.4746 (467)
349  Obj 10.549768 Dual inf 41785.579 (532)
410  Obj 9.3787812 Dual inf 14396.055 (476)
468  Obj 7.649928 Dual inf 58131.563 (484)
522  Obj 6.1101872 Dual inf 8967.6152 (433)
573  Obj 4.5709498 Dual inf 29893.179 (479)
620  Obj 2.2860364 Dual inf 8555.8499 (385)
669  Obj -1.2167491 Dual inf 31854.343 (411)
723  Obj -2.0491773 Dual inf 7437.8708 (296)
776  Obj -4.0523357 Dual inf 35932.864 (425)
831  Obj -5.6197255 Dual inf 1696.8869 (223)
880  Obj -5.831321 Dual inf 42.626958 (31)
923  Obj -5.8981123 Dual inf 9.5402376 (20)
944  Obj -5.9012091
944  Obj -5.9010736
Optimal - objective value -5.9010736
Pass   2: suminf.    4.49420 (178) obj. 199.828 iterations 944
0  Obj -6.2253659 Dual inf 970.01938 (194)
Perturbing problem by 0.001% of 5.4524218 - largest nonzero change 6.4084021e-05 ( 0.00096717663%) - largest zero change 1.6694101e-05
43  Obj -7.4387169 Dual inf 737.91521 (180)
93  Obj -7.5739398 Dual inf 7.9075094 (6)
101  Obj -7.5879425
101  Obj -7.5877119
Optimal - objective value -7.5877119
Pass   3: suminf.    2.51100 (141) obj. 199.822 iterations 101
0  Obj -8.3047786 Dual inf 9639.5223 (520)
Perturbing problem by 0.001% of 5.4524218 - largest nonzero change 6.274442e-05 ( 0.00094731247%) - largest zero change 1.9115144e-05
40  Obj -8.3052466 Dual inf 4062.3964 (319)
88  Obj -9.1499297 Dual inf 1305.3047 (286)
127  Obj -9.1784301
127  Obj -9.1782963
Optimal - objective value -9.1782963
Pass   4: suminf.    1.68550 (133) obj. 199.814 iterations 127
0  Obj -1.6317315 Dual inf 5443.4131 (447)
Perturbing problem by 0.001% of 5.4524218 - largest nonzero change 6.3902779e-05 ( 0.00096480132%) - largest zero change 1.9912513e-05
39  Obj -1.6321274 Dual inf 5838.003 (417)
82  Obj -1.6325786 Dual inf 943.98094 (267)
130  Obj -10.530045 Dual inf 113.28311 (92)
167  Obj -10.530066
167  Obj -10.529719
Optimal - objective value -10.529719
Pass   5: suminf.    0.18100 (126) obj. 192.819 iterations 167
0  Obj 15.567505 Dual inf 0.80925771 (26)
Perturbing problem by 0.001% of 5.4524218 - largest nonzero change 6.3101554e-05 ( 0.00090477944%) - largest zero change 1.8004741e-05
25  Obj -9.4811068
25  Obj -9.4811068
Optimal - objective value -9.4811068
Pass   6: suminf.    0.12800 (102) obj. 168.872 iterations 25
0  Obj 11.22113 Dual inf 0.63102437 (20)
Perturbing problem by 0.001% of 5.4524218 - largest nonzero change 6.3569188e-05 ( 0.00095976479%) - largest zero change 1.9140762e-05
20  Obj -8.6299886
20  Obj -8.6299886
Optimal - objective value -8.6299886
Pass   7: suminf.    0.09000 (83) obj. 149.91 iterations 20
0  Obj 18.596943 Dual inf 0.8268414 (25)
Perturbing problem by 0.001% of 5.4524218 - largest nonzero change 6.4321375e-05 ( 0.00095321444%) - largest zero change 1.9434516e-05
25  Obj -7.516523
25  Obj -7.516523
Optimal - objective value -7.516523
Pass   8: suminf.    0.05800 (58) obj. 124.942 iterations 25
0  Obj 20.246261 Dual inf 0.86189653 (27)
Perturbing problem by 0.001% of 5.4524218 - largest nonzero change 6.1890461e-05 ( 0.00093441944%) - largest zero change 1.983225e-05
25  Obj -6.1351308
25  Obj -6.1351308
Optimal - objective value -6.1351308
Pass   9: suminf.    0.03300 (33) obj. 99.967 iterations 25
0  Obj 14.809085 Dual inf 0.72858558 (22)
Perturbing problem by 0.001% of 5.4524218 - largest nonzero change 6.337081e-05 ( 0.00088031257%) - largest zero change 1.7514582e-05
21  Obj -5.1630229
21  Obj -5.1630229
Optimal - objective value -5.1630229
Pass  10: suminf.    0.01400 (14) obj. 80.986 iterations 21
Solution found of 67
0  Obj -200
Optimal - objective value -200
Before mini branch and bound, 733 integers at bound fixed and 0 continuous
Presolve 400 (0) rows, 467 (-733) columns and 7454 (-12790) elements
Presolve 289 (-111) rows, 324 (-876) columns and 3103 (-17141) elements
Full problem 400 rows 1200 columns, reduced to 400 rows 467 columns - 22 fixed gives 289, 324 - ok now
120 variables fixed
Presolve 289 (-111) rows, 324 (-876) columns and 3103 (-17141) elements
Presolve 271 (-18) rows, 306 (-18) columns and 2937 (-166) elements
processed model has 271 rows, 306 columns (306 integer (306 of which binary)) and 2937 elements
Full problem 400 rows 1200 columns, reduced to 271 rows 306 columns
356 added rows had average density of 2
At root node, 356 cuts changed objective from 181.94863 to 170.10163 in 4 passes
Cut generator 0 (Probing) - 758 row cuts average 2.0 elements, 0 column cuts (0 active)
Exiting on maximum time
Partial search - best objective -1e+50 (best possible 170.10163), took 1702 iterations and 0 nodes (0.96 seconds)
Maximum depth 0, 0 variables fixed on reduced cost
Mini branch and bound did not improve solution (0.96 seconds)
Round again with cutoff of 81.1999
Optimal - objective value -200
Optimal - objective value -200
No solution found this major pass
After 0.97 seconds - Feasibility pump exiting with objective of 67 - took 0.77 seconds
Optimal - objective value -67
Integer solution of 67 found by feasibility pump after 0 iterations and 0 nodes (0.97 seconds)
Optimal - objective value -200
Optimal - objective value -200
Exiting on maximum time
Partial search - best objective 67 (best possible 200), took 0 iterations and 0 nodes (0.99 seconds)
Maximum depth 0, 0 variables fixed on reduced cost
Optimal - objective value -67
0  Obj -67 Primal inf 287.2293 (200) Dual inf 879.18357 (98)
70  Obj -67 Primal inf 64.762043 (147) Dual inf 208.5479 (68)
138  Obj -67 Primal inf 39.694307 (105) Dual inf 70.056125 (50)
185  Obj -67 Primal inf 22.212729 (72) Dual inf 59.943479 (30)
204  Obj -67
Optimal - objective value -67
Cuts at root node changed objective from 200 to 200
Probing was tried 0 times and created 0 cuts of which 0 were active after adding rounds of cuts (0.000 seconds)
Gomory was tried 0 times and created 0 cuts of which 0 were active after adding rounds of cuts (0.000 seconds)
Knapsack was tried 0 times and created 0 cuts of which 0 were active after adding rounds of cuts (0.000 seconds)
Clique was tried 0 times and created 0 cuts of which 0 were active after adding rounds of cuts (0.000 seconds)
MixedIntegerRounding2 was tried 0 times and created 0 cuts of which 0 were active after adding rounds of cuts (0.000 seconds)
FlowCover was tried 0 times and created 0 cuts of which 0 were active after adding rounds of cuts (0.000 seconds)
TwoMirCuts was tried 0 times and created 0 cuts of which 0 were active after adding rounds of cuts (0.000 seconds)
ZeroHalf was tried 0 times and created 0 cuts of which 0 were active after adding rounds of cuts (0.000 seconds)
Optimal - objective value 67
Optimal - objective value 67
Presolve 0 (-600) rows, 0 (-1401) columns and 0 (-10922) elements
Crash put 0 variables in basis, 0 dual infeasibilities
Optimal - objective value 67
After Postsolve, objective 67, infeasibilities - dual 0 (0), primal 0 (0)
Optimal - objective value 67
Optimal - objective value 67
Presolve 0 (-600) rows, 0 (-1401) columns and 0 (-10922) elements
Optimal - objective value 67
After Postsolve, objective 67, infeasibilities - dual 0 (0), primal 0 (0)

Result - Stopped on time limit

Objective value:                67.00000000
Upper bound:                    200.000
Gap:                            -0.67
Enumerated nodes:               0
Total iterations:               0
Time (CPU seconds):             1.05
Time (Wallclock seconds):       1.05

Total time (CPU seconds):       1.05   (Wallclock seconds):       1.05

